0 0 0 0
0 1 0 0
0 2 0 10
0 3 0 0
0 4 0 4
0 5 0 5
0 6 0 5
0 7 0 8
0 8 0 11
0 9 0 13
0 10 0 18
0 11 0 4
0 12 0 11
0 13 2 11
0 14 0 21
0 15 0 10
0 16 0 17
0 17 0 19
0 18 0 18
0 19 0 20
0 20 1 17
0 21 0 22
0 22 0 25
0 23 1 22
0 24 2 13
0 25 0 25
0 26 0 23
0 27 0 24
0 28 0 26
0 29 0 27
0 30 0 26
0 31 0 29
